p cnf 13 49
6 8 10 0
-2 4 13 0
10 11 13 0
6 10 11 0
6 -12 13 0
-2 5 7 0
8 -11 -13 0
-2 -6 -12 0
3 -7 -8 0
6 7 11 0
-4 -5 -10 0
-2 -9 -13 0
-5 9 -12 0
-4 -7 -12 0
-3 10 13 0
-3 -11 -12 0
1 6 -10 0
-2 5 10 0
1 -3 13 0
1 -3 -13 0
-8 -9 12 0
-4 5 10 0
-8 -11 13 0
6 -7 -11 0
4 5 -12 0
4 -7 12 0
6 11 -13 0
-5 6 -8 0
5 -11 13 0
7 11 12 0
5 6 11 0
2 -10 11 0
-3 -7 12 0
5 12 -13 0
-2 8 -9 0
1 -2 8 0
-8 -9 13 0
-1 -3 -10 0
-5 9 -11 0
-7 11 -12 0
-2 -3 -7 0
3 -5 -8 0
7 8 12 0
-1 6 7 0
8 11 12 0
-3 -9 -12 0
2 4 -9 0
-10 -11 -12 0
2 4 7 0
